DIR: 0.0, EFF: 0.8333333333333333, INT: 0.08333333333333333, OBJ: 0.08333333333333333
original problem has 3071 variables (100 bin, 0 int, 0 impl, 2971 cont) and 384 constraints
1/1 feasible solution given by solution candidate storage, new primal bound 5.751714e+06

presolving:
   (0.0s) running MILP presolver
   (0.0s) MILP presolver found nothing
   (0.0s) probing cycle finished: starting next cycle
presolving (1 rounds: 1 fast, 1 medium, 1 exhaustive):
 1675 deleted vars, 10 deleted constraints, 0 added constraints, 94 tightened bounds, 0 added holes, 32 changed sides, 0 changed coefficients
 14158 implications, 4 cliques
presolved problem has 1396 variables (80 bin, 0 int, 0 impl, 1316 cont) and 374 constraints
     80 constraints of type <varbound>
    294 constraints of type <linear>
Presolving Time: 0.05

 time | node  | left  |LP iter|LP it/n|mem/heur|mdpt |vars |cons |rows |cuts |sepa|confs|strbr|  dualbound   | primalbound  |  gap   | compl. 
  0.1s|     1 |     0 |  1572 |     - |    17M |   0 |1396 | 374 | 374 |   0 |  0 |   0 |   0 | 5.627412e+06 | 5.751714e+06 |   2.21%| unknown
Computing relative interior point (time limit: 19.9209, iter limit: 15720) ...
  0.2s|     1 |     0 |  1599 |     - |    18M |   0 |1396 | 374 | 384 |  10 |  1 |   0 |   0 | 5.630824e+06 | 5.751714e+06 |   2.15%| unknown
  0.2s|     1 |     0 |  1666 |     - |    18M |   0 |1396 | 374 | 394 |  20 |  2 |   0 |   0 | 5.640258e+06 | 5.751714e+06 |   1.98%| unknown
  0.2s|     1 |     0 |  1714 |     - |    18M |   0 |1396 | 374 | 404 |  30 |  3 |   0 |   0 | 5.643033e+06 | 5.751714e+06 |   1.93%| unknown
  0.3s|     1 |     0 |  1750 |     - |    19M |   0 |1396 | 374 | 414 |  40 |  4 |   0 |   0 | 5.647407e+06 | 5.751714e+06 |   1.85%| unknown
  0.3s|     1 |     0 |  1778 |     - |    19M |   0 |1396 | 374 | 424 |  50 |  5 |   0 |   0 | 5.650363e+06 | 5.751714e+06 |   1.79%| unknown
  0.3s|     1 |     0 |  1804 |     - |    20M |   0 |1396 | 374 | 434 |  60 |  6 |   0 |   0 | 5.651633e+06 | 5.751714e+06 |   1.77%| unknown
  0.3s|     1 |     0 |  1870 |     - |    20M |   0 |1396 | 374 | 444 |  70 |  7 |   0 |   0 | 5.653450e+06 | 5.751714e+06 |   1.74%| unknown
  0.3s|     1 |     0 |  1970 |     - |    20M |   0 |1396 | 374 | 454 |  80 |  8 |   0 |   0 | 5.659055e+06 | 5.751714e+06 |   1.64%| unknown
  0.3s|     1 |     0 |  2046 |     - |    21M |   0 |1396 | 374 | 464 |  90 |  9 |   0 |   0 | 5.660454e+06 | 5.751714e+06 |   1.61%| unknown
  0.4s|     1 |     0 |  2111 |     - |    24M |   0 |1396 | 374 | 474 | 100 | 10 |   0 |   0 | 5.661657e+06 | 5.751714e+06 |   1.59%| unknown
  0.4s|     1 |     0 |  2253 |     - |    24M |   0 |1396 | 374 | 484 | 110 | 11 |   0 |   0 | 5.668744e+06 | 5.751714e+06 |   1.46%| unknown
  0.5s|     1 |     0 |  2365 |     - |    25M |   0 |1396 | 374 | 494 | 120 | 12 |   0 |   0 | 5.671032e+06 | 5.751714e+06 |   1.42%| unknown
  0.5s|     1 |     0 |  2447 |     - |    27M |   0 |1396 | 374 | 504 | 130 | 13 |   0 |   0 | 5.672736e+06 | 5.751714e+06 |   1.39%| unknown
  0.5s|     1 |     0 |  2513 |     - |    27M |   0 |1396 | 374 | 514 | 140 | 14 |   0 |   0 | 5.673422e+06 | 5.751714e+06 |   1.38%| unknown
 time | node  | left  |LP iter|LP it/n|mem/heur|mdpt |vars |cons |rows |cuts |sepa|confs|strbr|  dualbound   | primalbound  |  gap   | compl. 
  0.6s|     1 |     0 |  2591 |     - |    28M |   0 |1396 | 374 | 524 | 150 | 15 |   0 |   0 | 5.674683e+06 | 5.751714e+06 |   1.36%| unknown
  0.7s|     1 |     0 |  2640 |     - |    29M |   0 |1396 | 374 | 534 | 160 | 16 |   0 |   0 | 5.675333e+06 | 5.751714e+06 |   1.35%| unknown
  0.7s|     1 |     0 |  2740 |     - |    31M |   0 |1396 | 374 | 536 | 170 | 17 |   0 |   0 | 5.676475e+06 | 5.751714e+06 |   1.33%| unknown
  0.8s|     1 |     0 |  2894 |     - |    31M |   0 |1396 | 374 | 546 | 180 | 18 |   0 |   0 | 5.684174e+06 | 5.751714e+06 |   1.19%| unknown
  0.9s|     1 |     0 |  3022 |     - |    33M |   0 |1396 | 374 | 556 | 190 | 19 |   0 |   0 | 5.686357e+06 | 5.751714e+06 |   1.15%| unknown
  0.9s|     1 |     0 |  3138 |     - |    33M |   0 |1396 | 374 | 566 | 200 | 20 |   0 |   0 | 5.687693e+06 | 5.751714e+06 |   1.13%| unknown
  1.0s|     1 |     0 |  3177 |     - |    34M |   0 |1396 | 374 | 576 | 210 | 21 |   0 |   0 | 5.688035e+06 | 5.751714e+06 |   1.12%| unknown
  1.1s|     1 |     0 |  3267 |     - |    36M |   0 |1396 | 374 | 586 | 220 | 22 |   0 |   0 | 5.688841e+06 | 5.751714e+06 |   1.11%| unknown
  1.1s|     1 |     0 |  3430 |     - |    37M |   0 |1396 | 374 | 580 | 230 | 23 |   0 |   0 | 5.690997e+06 | 5.751714e+06 |   1.07%| unknown
  1.2s|     1 |     0 |  3479 |     - |    37M |   0 |1396 | 374 | 590 | 240 | 24 |   0 |   0 | 5.691279e+06 | 5.751714e+06 |   1.06%| unknown
  1.3s|     1 |     0 |  3547 |     - |    38M |   0 |1396 | 374 | 600 | 250 | 25 |   0 |   0 | 5.691728e+06 | 5.751714e+06 |   1.05%| unknown
  1.4s|     1 |     0 |  3658 |     - |    39M |   0 |1396 | 374 | 610 | 260 | 26 |   0 |   0 | 5.693466e+06 | 5.751714e+06 |   1.02%| unknown
  1.5s|     1 |     0 |  3709 |     - |    42M |   0 |1396 | 374 | 620 | 270 | 27 |   0 |   0 | 5.694185e+06 | 5.751714e+06 |   1.01%| unknown
  1.6s|     1 |     0 |  3886 |     - |    43M |   0 |1396 | 374 | 630 | 280 | 28 |   0 |   0 | 5.695675e+06 | 5.751714e+06 |   0.98%| unknown
  1.7s|     1 |     0 |  4096 |     - |    44M |   0 |1396 | 374 | 619 | 290 | 29 |   0 |   0 | 5.701194e+06 | 5.751714e+06 |   0.89%| unknown
 time | node  | left  |LP iter|LP it/n|mem/heur|mdpt |vars |cons |rows |cuts |sepa|confs|strbr|  dualbound   | primalbound  |  gap   | compl. 
  1.8s|     1 |     0 |  4279 |     - |    45M |   0 |1396 | 374 | 629 | 300 | 30 |   0 |   0 | 5.703349e+06 | 5.751714e+06 |   0.85%| unknown
  1.9s|     1 |     0 |  4385 |     - |    45M |   0 |1396 | 374 | 639 | 310 | 31 |   0 |   0 | 5.704078e+06 | 5.751714e+06 |   0.84%| unknown
  2.0s|     1 |     0 |  4467 |     - |    46M |   0 |1396 | 374 | 649 | 320 | 32 |   0 |   0 | 5.704399e+06 | 5.751714e+06 |   0.83%| unknown
  2.0s|     1 |     0 |  4564 |     - |    49M |   0 |1396 | 374 | 659 | 330 | 33 |   0 |   0 | 5.704935e+06 | 5.751714e+06 |   0.82%| unknown
  2.1s|     1 |     0 |  4656 |     - |    51M |   0 |1396 | 374 | 669 | 340 | 34 |   0 |   0 | 5.705648e+06 | 5.751714e+06 |   0.81%| unknown
  2.3s|     1 |     0 |  4922 |     - |    53M |   0 |1396 | 374 | 649 | 350 | 35 |   0 |   0 | 5.707716e+06 | 5.751714e+06 |   0.77%| unknown
  2.4s|     1 |     0 |  5023 |     - |    54M |   0 |1396 | 374 | 659 | 360 | 36 |   0 |   0 | 5.709286e+06 | 5.751714e+06 |   0.74%| unknown
  2.5s|     1 |     0 |  5158 |     - |    57M |   0 |1396 | 374 | 669 | 370 | 37 |   0 |   0 | 5.709969e+06 | 5.751714e+06 |   0.73%| unknown
  2.6s|     1 |     0 |  5209 |     - |    59M |   0 |1396 | 374 | 679 | 380 | 38 |   0 |   0 | 5.710008e+06 | 5.751714e+06 |   0.73%| unknown
  2.7s|     1 |     0 |  5315 |     - |    62M |   0 |1396 | 374 | 689 | 390 | 39 |   0 |   0 | 5.710227e+06 | 5.751714e+06 |   0.73%| unknown
  2.8s|     1 |     0 |  5424 |     - |    66M |   0 |1396 | 374 | 699 | 400 | 40 |   0 |   0 | 5.710685e+06 | 5.751714e+06 |   0.72%| unknown
  2.9s|     1 |     0 |  5542 |     - |    66M |   0 |1396 | 374 | 666 | 410 | 41 |   0 |   0 | 5.711415e+06 | 5.751714e+06 |   0.71%| unknown
  3.0s|     1 |     0 |  5620 |     - |    68M |   0 |1396 | 374 | 676 | 420 | 42 |   0 |   0 | 5.711895e+06 | 5.751714e+06 |   0.70%| unknown
  3.1s|     1 |     0 |  5756 |     - |    70M |   0 |1396 | 374 | 686 | 430 | 43 |   0 |   0 | 5.712222e+06 | 5.751714e+06 |   0.69%| unknown
  3.2s|     1 |     0 |  5799 |     - |    72M |   0 |1396 | 374 | 696 | 440 | 44 |   0 |   0 | 5.712344e+06 | 5.751714e+06 |   0.69%| unknown
 time | node  | left  |LP iter|LP it/n|mem/heur|mdpt |vars |cons |rows |cuts |sepa|confs|strbr|  dualbound   | primalbound  |  gap   | compl. 
  3.4s|     1 |     0 |  5984 |     - |    74M |   0 |1396 | 374 | 706 | 450 | 45 |   0 |   0 | 5.713358e+06 | 5.751714e+06 |   0.67%| unknown
  3.5s|     1 |     0 |  6140 |     - |    75M |   0 |1396 | 374 | 716 | 460 | 46 |   0 |   0 | 5.713950e+06 | 5.751714e+06 |   0.66%| unknown
  3.7s|     1 |     0 |  6253 |     - |    76M |   0 |1396 | 374 | 674 | 470 | 47 |   0 |   0 | 5.714191e+06 | 5.751714e+06 |   0.66%| unknown
  3.8s|     1 |     0 |  6328 |     - |    77M |   0 |1396 | 374 | 684 | 480 | 48 |   0 |   0 | 5.714285e+06 | 5.751714e+06 |   0.66%| unknown
  3.9s|     1 |     0 |  6377 |     - |    78M |   0 |1396 | 374 | 694 | 490 | 49 |   0 |   0 | 5.714368e+06 | 5.751714e+06 |   0.65%| unknown
  3.9s|     1 |     0 |  6456 |     - |    78M |   0 |1396 | 374 | 704 | 500 | 50 |   0 |   0 | 5.714764e+06 | 5.751714e+06 |   0.65%| unknown
  3.9s|     1 |     2 |  6456 |     - |    78M |   0 |1396 | 374 | 704 | 500 | 50 |   0 |   0 | 5.714764e+06 | 5.751714e+06 |   0.65%| unknown

SCIP Status        : solving was interrupted [node limit reached]
Solving Time (sec) : 3.94
Solving Nodes      : 1
Primal Bound       : +5.75171432890511e+06 (1 solutions)
Dual Bound         : +5.71476433596230e+06
Gap                : 0.65 %
